NAME : rat99
TYPE : OP
DIMENSION : 99
COST_LIMIT : 727
ROUTE_NODES : 56
ROUTE_SCORE : 3502
ROUTE_COST : 727
NODE_SEQUENCE_SECTION
1
2
3
4
5
6
15
16
25
26
35
34
43
33
42
52
51
60
61
62
71
72
81
79
88
87
86
95
94
93
91
82
83
84
76
77
68
67
66
65
56
57
49
50
40
39
38
37
28
30
21
22
13
12
11
10
-1
DEPOT_SECTION
1
-1
EOF
